Version identifier: 22.1.1.0 | 2022-11-28 | 9160aff4d
CPXPARAM_ClockType                               1
CPXPARAM_Read_DataCheck                          1
CPXPARAM_Threads                                 1
CPXPARAM_TimeLimit                               7200
CPXPARAM_MIP_Tolerances_AbsMIPGap                0
CPXPARAM_MIP_Tolerances_MIPGap                   0
CPXPARAM_MIP_Tolerances_Integrality              0
Tried aggregator 5 times.
MIP Presolve eliminated 37025 rows and 12627 columns.
MIP Presolve modified 47 coefficients.
Aggregator did 5942 substitutions.
Reduced MIP has 377769 rows, 165436 columns, and 1172101 nonzeros.
Reduced MIP has 165436 binaries, 0 generals, 0 SOSs, and 0 indicators.
Presolve time = 3.28 sec. (1808.39 ticks)
Probing fixed 1066 vars, tightened 0 bounds.
Probing time = 3.94 sec. (1339.11 ticks)
Tried aggregator 3 times.
Detecting symmetries...
MIP Presolve eliminated 9778 rows and 3229 columns.
MIP Presolve modified 510 coefficients.
Aggregator did 578 substitutions.
Reduced MIP has 367413 rows, 161629 columns, and 1145296 nonzeros.
Reduced MIP has 161629 binaries, 0 generals, 0 SOSs, and 0 indicators.
Presolve time = 4.97 sec. (2500.23 ticks)
Probing fixed 41 vars, tightened 0 bounds.
Probing time = 0.91 sec. (294.19 ticks)
Clique table members: 734905.
MIP emphasis: balance optimality and feasibility.
MIP search method: dynamic search.
Parallel mode: none, using 1 thread.
Root relaxation solution time = 2597.35 sec. (535048.42 ticks)

        Nodes                                         Cuts/
   Node  Left     Objective  IInf  Best Integer    Best Bound    ItCnt     Gap

      0     0   140258.7500 54033                 140258.7500   311078         
      0     0   138247.0000 54254               Cliques: 4881   420891         

Clique cuts applied:  13563

Root node processing (before b&c):
  Real time             = 7200.34 sec. (2020447.26 ticks)
Sequential b&c:
  Real time             =    0.00 sec. (0.00 ticks)
                          ------------
Total (root+branch&cut) = 7200.34 sec. (2020447.26 ticks)
Solution is infeasible.

---------------------
@@@ MIP_time_limit_infeasible
Traceback (most recent call last):
  File "/scratch/scherif/DiverseSAT-journal_sup/DiverseSAT_Supplementary_Experiments/experiment-1/cplex/jobs/../solvers/CPLEX-IW-SE.py", line 105, in <module>
    print(f">>> Benchmark {os.path.basename(cnf_file)} k {k} OPT {int(prob.solution.get_objective_value())}"
  File "/users/scherif/.local/lib/python3.9/site-packages/cplex/_internal/_subinterfaces.py", line 7211, in get_objective_value
    return CPX_PROC.getobjval(self._env._e, self._cplex._lp)
  File "/users/scherif/.local/lib/python3.9/site-packages/cplex/_internal/_procedural.py", line 2055, in getobjval
    check_status(env, status)
  File "/users/scherif/.local/lib/python3.9/site-packages/cplex/_internal/_procedural.py", line 249, in __call__
    raise CplexSolverError(error_string, env, status)
cplex.exceptions.errors.CplexSolverError: CPLEX Error  1217: No solution exists.
